p cnf 29 78
a 10 22 0
e 1 2 3 4 5 6 7 8 9 11 12 13 14 15 16 17 18 19 20 21 23 24 25 26 27 28 29 0
1 -2 -3 0
-1 2 -3 0
1 2 3 0
-1 -2 3 0
4 -5 -6 0
-4 5 -6 0
4 5 6 0
-4 -5 6 0
7 -3 0
7 -6 0
3 6 -7 0
9 7 0
9 8 0
-7 -8 -9 0
11 10 0
11 8 0
-10 -8 -11 0
7 -1 -12 0
-7 1 -12 0
7 1 12 0
-7 -1 12 0
10 -12 -13 0
-10 12 -13 0
10 12 13 0
-10 -12 13 0
14 -11 0
14 -13 0
11 13 -14 0
15 9 0
15 14 0
-9 -14 -15 0
-16 -2 0
-16 -3 0
2 3 16 0
-2 16 -17 0
2 -16 -17 0
-2 -16 17 0
2 16 17 0
19 18 0
19 -5 0
-18 5 -19 0
-20 4 0
-20 12 0
-4 -12 20 0
-21 -19 0
-21 20 0
19 -20 21 0
-23 -1 0
-23 -22 0
1 22 23 0
-23 12 -24 0
23 -12 -24 0
-23 -12 24 0
23 12 24 0
25 -21 0
25 24 0
21 -24 -25 0
17 25 -26 0
-17 -25 -26 0
17 -25 26 0
-17 25 26 0
-27 8 0
-27 -3 0
-8 3 27 0
28 -26 0
28 27 0
26 -27 -28 0
-29 15 0
-29 28 0
-15 -28 29 0
-22 -25 8 10 -12 -20 -6 -23 0
17 -16 12 -18 -10 -15 -19 -27 0
22 8 6 -23 12 25 7 0
-5 -25 -19 0
21 -14 25 12 10 0
-27 -13 29 -14 0
13 15 18 16 -19 0
29 0
